#p hf

title

0 1
N       21.560        3.690       15.600
H       21.660        4.560       15.040
H       20.620        3.260       15.450
H       21.670        3.900       16.620
C       22.500        2.630       15.060
H       22.280        1.780       15.680
C       23.980        3.050       15.040
O       24.350        4.250       15.400
O       24.850        2.150       14.690
C       22.040        2.230       13.630
H       22.610        1.300       13.420
H       22.250        3.040       12.910
P       19.850        1.750       12.240
O       19.450        3.110       11.740
O       18.830        0.740       12.550
O       20.690        1.970       13.620
O       21.010        1.170       11.300
C       21.310       -0.280       11.470
H       20.390       -0.860       11.230
H       21.750       -0.490       12.470
C       22.340       -0.710       10.360
H       23.260       -0.100       10.480
O       21.710       -0.530        9.080
C       22.460       -0.380        8.050
O       23.690       -0.470        8.060
C       21.670       -0.120        6.710
H       22.440       -0.390        5.960
H       21.570        0.980        6.610
C       22.740       -2.190       10.600
H       23.100       -2.330       11.640
H       23.690       -2.360       10.060
O       21.680       -3.130       10.350
C       21.570       -3.760        9.210
O       22.360       -3.750        8.310
C       20.180       -4.430        9.230
H       20.240       -5.130       10.090
H       19.270       -3.790        9.150
C       20.300       -0.750        6.650
H       19.550       -0.040        7.060
H       20.320       -1.700        7.210
H       20.127       -1.016        5.586
C       20.150       -5.360        8.000
H       21.110       -5.920        7.960
H       20.210       -4.750        7.070
H       19.217       -5.959        7.947
O       23.750        3.060       18.610
H       24.150        3.410       19.410
H       22.830        2.920       18.840
O       25.930        0.920        7.870
H       26.670        0.480        8.290
H       25.210        0.300        7.960
O       19.950        7.080       16.560
H       20.680        6.510       16.800
H       20.120        7.310       15.650
O       20.430       -0.830       15.120
H       21.330       -0.820       14.800
H       19.910       -1.110       14.360
O       24.970       -2.860        7.230
H       24.300       -3.510        7.430
H       24.580       -2.020        7.500
O       21.990        5.690       17.920
H       21.800        5.510       18.840
H       22.880        6.020       17.910
O       16.730        0.060       11.120
H       17.560        0.340       11.510
H       16.190        0.850       11.090
O       23.980       -4.750       12.080
H       24.680       -4.140       11.850
H       24.180       -5.540       11.570
O       22.320       -3.420       13.890
H       21.460       -3.820       13.740
H       22.820       -3.630       13.110
O       18.960       -2.340       13.280
H       19.540       -3.100       13.210
H       18.510       -2.310       12.440
O       21.040        0.460       17.740
H       20.720       -0.050       16.990
H       21.110       -0.180       18.450
O       26.520        4.510       16.770
H       25.740        4.460       16.210
H       27.250        4.530       16.150
O       25.480        1.530       17.400
H       25.420        1.800       16.490
H       24.940        2.160       17.880
O       20.920        2.930       18.950
H       20.010        3.140       19.140
H       20.890        2.130       18.430
O       25.870       -2.710       11.730
H       26.160       -3.150       12.530
H       26.510       -2.960       11.070
O       22.500        3.130        9.920
H       21.930        2.390       10.150
H       21.910        3.880        9.880
O       20.040       -4.970       13.590
H       19.720       -5.540       12.900
H       19.600       -5.270       14.380
O       17.370       -2.740       10.990
H       17.280       -1.790       11.100
H       16.960       -2.930       10.150
O       17.980        1.340       15.190
H       18.160        2.240       15.440
H       18.770        1.040       14.740
O       26.050       -0.250       14.130
H       26.030       -0.200       13.170
H       25.770        0.620       14.420
O       20.460        5.000       10.200
H       20.950        5.570       10.790
H       19.930        4.450       10.770


